/* Objective function */
min: -385 Large -330 Medium -275 Small;

/* Constraints */
Plant1: +Large +Medium +Small <= 750;
Plant2: +Large +Medium +Small <= 900;
Plant3: +Large +Medium +Small <= 450;
+20 Large +15 Medium +12 Small <= 13000;
+20 Large +15 Medium +12 Small <= 12000;
+20 Large +15 Medium +12 Small <= 5000;
